
Gurobi 12.0.3 (win64) logging started Sun Nov  9 14:39:59 2025

Set parameter LogFile to value "Results\100_percent\budget_10000\original\gurobi.log"
Gurobi Optimizer version 12.0.3 build v12.0.3rc0 (win64 - Windows 11+.0 (26200.2))

CPU model: Intel(R) Core(TM) Ultra 7 265K, instruction set [SSE2|AVX|AVX2]
Thread count: 20 physical cores, 20 logical processors, using up to 20 threads

Non-default parameters:
TimeLimit  86400

Optimize a model with 29203 rows, 2435852 columns and 15323556 nonzeros
Model fingerprint: 0x473fe44e
Variable types: 0 continuous, 2435852 integer (2435852 binary)
Coefficient statistics:
  Matrix range     [1e+00, 2e+03]
  Objective range  [1e+00, 1e+03]
  Bounds range     [1e+00, 1e+00]
  RHS range        [1e+00, 1e+04]
Found heuristic solution: objective -0.0000000
Presolve removed 566 rows and 4 columns (presolve time = 5s)...
Presolve removed 1011 rows and 4 columns (presolve time = 10s)...
Presolve removed 1011 rows and 4 columns (presolve time = 15s)...
Presolve removed 1011 rows and 4 columns (presolve time = 20s)...
Presolve added 0 rows and 1 columns
Presolve removed 1006 rows and 0 columns
Presolve time: 23.72s
Presolved: 28197 rows, 2435853 columns, 15116991 nonzeros
Variable types: 0 continuous, 2435853 integer (2435844 binary)
Deterministic concurrent LP optimizer: primal simplex, dual simplex, and barrier
Showing barrier log only...

Root barrier log...

Elapsed ordering time = 5s
Elapsed ordering time = 10s
Ordering time: 15.09s

Barrier statistics:
 AA' NZ     : 1.280e+07
 Factor NZ  : 1.025e+08 (roughly 2.0 GB of memory)
 Factor Ops : 7.969e+11 (roughly 2 seconds per iteration)
 Threads    : 18

                  Objective                Residual
Iter       Primal          Dual         Primal    Dual     Compl     Time
   0   4.95535566e+10  7.00680637e+07  5.97e+05 7.23e+02  8.37e+04    51s
   1   7.81121384e+09  6.24058141e+07  9.03e+04 1.26e+02  1.27e+04    53s
   2   8.27348798e+08  2.44684943e+07  9.58e+03 1.42e+01  1.38e+03    54s
   3   3.79367204e+07  1.16176647e+07  4.40e+02 1.36e-12  6.55e+01    56s
   4   1.37664294e+07  9.59608980e+06  1.57e+02 1.61e-12  2.38e+01    58s
   5   4.86887260e+06  6.02630770e+06  5.31e+01 9.84e-13  8.65e+00    60s
   6   3.13992134e+06  3.04378171e+06  3.30e+01 1.11e-12  5.21e+00    61s
   7   2.34152519e+06  2.07890896e+06  2.39e+01 9.22e-13  3.73e+00    63s
   8   1.60748113e+06  1.52811526e+06  1.57e+01 1.11e-12  2.47e+00    65s
   9   1.20868811e+06  1.35048785e+06  1.14e+01 1.59e-12  1.81e+00    66s
  10   9.70576434e+05  1.20011122e+06  8.78e+00 9.51e-13  1.41e+00    68s
  11   7.16756113e+05  1.05834986e+06  6.04e+00 1.17e-12  9.75e-01    69s
  12   4.34753042e+05  9.03243078e+05  3.02e+00 7.12e-13  5.23e-01    71s
  13   2.84935788e+05  8.00928380e+05  1.37e+00 7.35e-13  2.85e-01    73s
  14   2.37375404e+05  7.13481204e+05  7.92e-01 8.76e-13  1.92e-01    75s
  15   2.11682032e+05  6.22423611e+05  4.39e-01 5.27e-13  1.30e-01    76s
  16   2.06644712e+05  4.90084358e+05  3.06e-01 4.44e-13  8.34e-02    78s
  17   2.06763995e+05  4.40360304e+05  2.13e-01 5.18e-13  6.36e-02    80s
  18   2.07299287e+05  4.01694265e+05  2.03e-01 6.60e-13  5.33e-02    82s
  19   2.11617520e+05  3.87167857e+05  1.59e-01 5.52e-13  4.61e-02    85s
  20   2.18619393e+05  3.61632989e+05  1.28e-01 5.46e-13  3.68e-02    88s
  21   2.24795150e+05  3.49089475e+05  1.08e-01 4.20e-13  3.15e-02    91s
  22   2.27877822e+05  3.32298950e+05  9.90e-02 4.63e-13  2.67e-02    94s
  23   2.38700900e+05  3.20832626e+05  7.94e-02 3.58e-13  2.09e-02    97s
  24   2.50568955e+05  3.15927859e+05  5.92e-02 3.20e-13  1.63e-02   101s

Barrier performed 24 iterations in 100.92 seconds (163.99 work units)
Barrier solve interrupted - model solved by another algorithm

Concurrent spin time: 0.13s

Solved with primal simplex

Root simplex log...

Iteration    Objective       Primal Inf.    Dual Inf.      Time
  521283    3.0458718e+05   0.000000e+00   0.000000e+00    101s

Root relaxation: objective 3.045872e+05, 521283 iterations, 73.64 seconds (50.24 work units)
Total elapsed time = 105.46s (DegenMoves)

    Nodes    |    Current Node    |     Objective Bounds      |     Work
 Expl Unexpl |  Obj  Depth IntInf | Incumbent    BestBd   Gap | It/Node Time

     0     0 304587.183    0  286   -0.00000 304587.183      -     -  107s
H    0     0                    101642.00000 304587.183   200%     -  108s
H    0     0                    105469.00000 304587.183   189%     -  108s
H    0     0                    207312.00000 304587.183  46.9%     -  112s
H    0     0                    281223.00000 304587.183  8.31%     -  114s
H    0     0                    281271.00000 304587.183  8.29%     -  117s
H    0     0                    281865.00000 304587.183  8.06%     -  120s
H    0     0                    282236.00000 304587.183  7.92%     -  120s
H    0     0                    282312.00000 304587.183  7.89%     -  121s
     0     0 302186.803    0 2758 282312.000 302186.803  7.04%     -  159s
H    0     0                    282330.00000 302180.348  7.03%     -  176s
H    0     0                    283169.00000 302180.348  6.71%     -  176s
H    0     0                    287673.00000 302180.348  5.04%     -  177s
H    0     0                    287885.00000 302180.348  4.97%     -  177s
H    0     0                    289296.00000 302180.348  4.45%     -  178s
H    0     0                    289335.00000 302180.348  4.44%     -  179s
H    0     0                    289365.00000 302180.348  4.43%     -  183s
H    0     0                    289366.00000 302180.348  4.43%     -  187s
H    0     0                    290619.00000 302180.348  3.98%     -  197s
     0     0 301896.754    0 3223 290619.000 301896.754  3.88%     -  204s
     0     0 301875.909    0 3351 290619.000 301875.909  3.87%     -  207s
     0     0 301871.634    0 3406 290619.000 301871.634  3.87%     -  212s
     0     0 301868.390    0 3450 290619.000 301868.390  3.87%     -  214s
     0     0 301866.416    0 3465 290619.000 301866.416  3.87%     -  216s
     0     0 301865.927    0 3466 290619.000 301865.927  3.87%     -  218s
     0     0 301865.107    0 3475 290619.000 301865.107  3.87%     -  220s
     0     0 301864.105    0 3485 290619.000 301864.105  3.87%     -  222s
     0     0 301864.105    0 3497 290619.000 301864.105  3.87%     -  224s
     0     0 300161.577    0 3928 290619.000 300161.577  3.28%     -  269s
H    0     0                    290666.00000 300158.428  3.27%     -  271s
H    0     0                    290695.00000 300158.428  3.26%     -  280s
H    0     0                    291104.00000 300158.428  3.11%     -  280s
H    0     0                    291186.00000 300158.428  3.08%     -  281s
H    0     0                    292103.00000 300158.428  2.76%     -  282s
H    0     0                    292362.00000 300158.428  2.67%     -  285s
H    0     0                    292387.00000 300158.428  2.66%     -  289s
     0     0 299987.401    0 3808 292387.000 299987.401  2.60%     -  301s
     0     0 299960.789    0 3765 292387.000 299960.789  2.59%     -  310s
     0     0 299957.215    0 3904 292387.000 299957.215  2.59%     -  314s
     0     0 299954.594    0 3908 292387.000 299954.594  2.59%     -  318s
     0     0 299953.014    0 3878 292387.000 299953.014  2.59%     -  321s
     0     0 299952.822    0 3928 292387.000 299952.822  2.59%     -  324s
     0     0 298801.798    0 4462 292387.000 298801.798  2.19%     -  377s
H    0     0                    292416.00000 298798.081  2.18%     -  393s
H    0     0                    292419.00000 298798.081  2.18%     -  393s
H    0     0                    292466.00000 298798.081  2.17%     -  393s
H    0     0                    292468.00000 298798.081  2.16%     -  402s
     0     0 298653.203    0 4563 292468.000 298653.203  2.11%     -  420s
     0     0 298629.695    0 4718 292468.000 298629.695  2.11%     -  430s
     0     0 298621.079    0 4934 292468.000 298621.079  2.10%     -  438s
     0     0 298617.381    0 4829 292468.000 298617.381  2.10%     -  445s
     0     0 298616.739    0 4811 292468.000 298616.739  2.10%     -  449s
     0     0 297917.884    0 4524 292468.000 297917.884  1.86%     -  510s
     0     0 297816.870    0 4410 292468.000 297816.870  1.83%     -  527s
     0     0 297793.521    0 4564 292468.000 297793.521  1.82%     -  538s
     0     0 297786.126    0 4609 292468.000 297786.126  1.82%     -  544s
     0     0 297783.243    0 4426 292468.000 297783.243  1.82%     -  549s
     0     0 297782.344    0 4630 292468.000 297782.344  1.82%     -  553s
     0     0 297286.438    0 4722 292468.000 297286.438  1.65%     -  740s
H    0     0                    293849.00000 297280.071  1.17%     -  762s
H    0     0                    293862.00000 297280.071  1.16%     -  763s
H    0     0                    294835.00000 297280.071  0.83%     -  767s
H    0     0                    295015.00000 297280.071  0.77%     -  768s
H    0     0                    295025.00000 297280.071  0.76%     -  774s
     0     0 297244.107    0 4670 295025.000 297244.107  0.75%     -  790s
     0     0 297225.101    0 4551 295025.000 297225.101  0.75%     -  799s
     0     0 297218.346    0 4274 295025.000 297218.346  0.74%     -  806s
     0     0 297215.450    0 4706 295025.000 297215.450  0.74%     -  810s
     0     0 297214.348    0 4365 295025.000 297214.348  0.74%     -  815s
     0     0 296907.896    0 4130 295025.000 296907.896  0.64%     -  858s
H    0     0                    295119.00000 296907.071  0.61%     -  865s
     0     0 296860.273    0 3495 295119.000 296860.273  0.59%     -  882s
     0     0 296846.658    0 3555 295119.000 296846.658  0.59%     -  889s
     0     0 296841.618    0 3558 295119.000 296841.618  0.58%     -  894s
     0     0 296837.165    0 3572 295119.000 296837.165  0.58%     -  898s
     0     0 296836.409    0 3184 295119.000 296836.409  0.58%     -  901s
     0     0 296613.472    0 4362 295119.000 296613.472  0.51%     -  947s
     0     0 296612.488    0 4019 295119.000 296612.488  0.51%     -  955s
     0     0 296586.465    0 4034 295119.000 296586.465  0.50%     -  992s
     0     0 296575.639    0 4314 295119.000 296575.639  0.49%     - 1006s
     0     0 296570.970    0 3999 295119.000 296570.970  0.49%     - 1013s
     0     0 296569.460    0 4075 295119.000 296569.460  0.49%     - 1017s
     0     0 296417.389    0 4458 295119.000 296417.389  0.44%     - 1065s
H    0     0                    295123.00000 296416.266  0.44%     - 1092s
     0     0 296390.885    0 3668 295123.000 296390.885  0.43%     - 1121s
     0     0 296382.033    0 4216 295123.000 296382.033  0.43%     - 1137s
     0     0 296379.767    0 3979 295123.000 296379.767  0.43%     - 1144s
     0     0 296299.053    0 3334 295123.000 296299.053  0.40%     - 1187s
H    0     0                    295844.00000 296298.331  0.15%     - 1206s
H    0     0                    295849.00000 296298.331  0.15%     - 1207s
H    0     0                    295866.00000 296298.331  0.15%     - 1217s
H    0     0                    295947.00000 296298.331  0.12%     - 1231s
     0     0 296285.098    0 4034 295947.000 296285.098  0.11%     - 1245s
     0     0 296283.771    0 3110 295947.000 296283.771  0.11%     - 1250s
     0     0 296229.548    0 2909 295947.000 296229.548  0.10%     - 1286s
     0     0 296229.548    0  297 295947.000 296229.548  0.10%     - 1348s
     0     0 296229.548    0 2608 295947.000 296229.548  0.10%     - 1396s
     0     0 296229.548    0 3722 295947.000 296229.548  0.10%     - 1432s
     0     0 296229.548    0 4367 295947.000 296229.548  0.10%     - 1453s
     0     0 296229.548    0 4445 295947.000 296229.548  0.10%     - 1471s
     0     0 296229.548    0 4560 295947.000 296229.548  0.10%     - 1488s
     0     0 296229.548    0 4038 295947.000 296229.548  0.10%     - 1512s
     0     0 296229.548    0 4532 295947.000 296229.548  0.10%     - 1531s
     0     0 296229.548    0 4358 295947.000 296229.548  0.10%     - 1546s
     0     0 296229.548    0 4598 295947.000 296229.548  0.10%     - 1570s
     0     0 296229.548    0 3193 295947.000 296229.548  0.10%     - 1593s
     0     0 296229.548    0 3939 295947.000 296229.548  0.10%     - 1604s
     0     0 296229.548    0 3795 295947.000 296229.548  0.10%     - 1613s
     0     0 296229.548    0 2996 295947.000 296229.548  0.10%     - 1621s
     0     0 296229.133    0 4266 295947.000 296229.133  0.10%     - 1626s
     0     0 296228.437    0 3238 295947.000 296228.437  0.10%     - 1630s
     0     0 296227.603    0 3442 295947.000 296227.603  0.09%     - 1634s
     0     0 296227.354    0 3423 295947.000 296227.354  0.09%     - 1636s
     0     0 296201.076    0 2610 295947.000 296201.076  0.09%     - 1655s
     0     0 296199.740    0 2369 295947.000 296199.740  0.09%     - 1660s
     0     0 296197.854    0 2937 295947.000 296197.854  0.08%     - 1688s
     0     0 296197.615    0 2956 295947.000 296197.615  0.08%     - 1689s
     0     0 296182.584    0 2812 295947.000 296182.584  0.08%     - 1706s
     0     0 296177.301    0 2751 295947.000 296177.301  0.08%     - 1734s
     0     0 296176.511    0 3227 295947.000 296176.511  0.08%     - 1740s
     0     0 296161.037    0 1925 295947.000 296161.037  0.07%     - 1759s
     0     0 296160.559    0 1422 295947.000 296160.559  0.07%     - 1763s
     0     0 296157.609    0 2743 295947.000 296157.609  0.07%     - 1772s
     0     0 296146.824    0 1688 295947.000 296146.824  0.07%     - 1787s
     0     0 296146.824    0  337 295947.000 296146.824  0.07%     - 1830s
     0     0 296146.824    0 2627 295947.000 296146.824  0.07%     - 1851s
     0     0 296146.824    0 3872 295947.000 296146.824  0.07%     - 1876s
     0     0 296146.824    0 4488 295947.000 296146.824  0.07%     - 1890s
     0     0 296146.824    0 4252 295947.000 296146.824  0.07%     - 1902s
     0     0 296146.824    0 4434 295947.000 296146.824  0.07%     - 1913s
     0     0 296146.824    0 4302 295947.000 296146.824  0.07%     - 1927s
     0     0 296146.824    0 4490 295947.000 296146.824  0.07%     - 1938s
     0     0 296146.824    0 3935 295947.000 296146.824  0.07%     - 1946s
     0     0 296146.824    0 3909 295947.000 296146.824  0.07%     - 1955s
     0     0 296146.824    0 3177 295947.000 296146.824  0.07%     - 1965s
     0     0 296146.824    0 2752 295947.000 296146.824  0.07%     - 1970s
     0     0 296146.824    0 1725 295947.000 296146.824  0.07%     - 1973s
     0     0 296146.824    0 2086 295947.000 296146.824  0.07%     - 1979s
     0     0 296146.824    0 2211 295947.000 296146.824  0.07%     - 1985s
     0     0 296146.824    0 3107 295947.000 296146.824  0.07%     - 1990s
     0     0 296146.824    0 1654 295947.000 296146.824  0.07%     - 1995s
     0     0 296146.824    0 1692 295947.000 296146.824  0.07%     - 1996s
     0     0 296146.824    0 1574 295947.000 296146.824  0.07%     - 1998s
     0     0 296146.824    0 1556 295947.000 296146.824  0.07%     - 2000s
     0     0 296146.748    0 1673 295947.000 296146.748  0.07%     - 2002s
     0     0 296146.507    0 1585 295947.000 296146.507  0.07%     - 2004s
     0     0 296141.779    0 3990 295947.000 296141.779  0.07%     - 2014s
     0     0 296140.422    0 1934 295947.000 296140.422  0.07%     - 2022s
     0     0 296137.319    0 1560 295947.000 296137.319  0.06%     - 2031s
     0     0 296136.259    0 1602 295947.000 296136.259  0.06%     - 2047s
     0     0 296134.300    0 1469 295947.000 296134.300  0.06%     - 2054s
     0     0 296134.179    0 1270 295947.000 296134.179  0.06%     - 2057s
     0     0 296134.111    0 1712 295947.000 296134.111  0.06%     - 2065s
     0     0 296131.504    0 1642 295947.000 296131.504  0.06%     - 2072s
     0     0 296131.425    0 1514 295947.000 296131.425  0.06%     - 2076s
     0     1 296131.368    0 1456 295947.000 296131.368  0.06%     - 2147s
     6     3 296130.770    4  734 295947.000 296131.106  0.06%  1819 2156s
    11     5 296130.342    6  730 295947.000 296130.342  0.06%  1280 2163s
    15     5 296130.064    7  859 295947.000 296130.064  0.06%  1132 2166s
    31     7 296129.759   10  981 295947.000 296129.759  0.06%   583 2171s
    37     9 296129.682   11  913 295947.000 296129.682  0.06%   597 2181s
    44    10 296117.888   12  986 295947.000 296129.641  0.06%   841 2194s
    52    14 296117.314   13 1600 295947.000 296129.641  0.06%   802 2214s
    62    20 296116.881   14 1508 295947.000 296127.986  0.06%   830 2226s
    81    18 296115.334   15 1792 295947.000 296127.781  0.06%   809 2242s
   104    25 296112.516   16 1543 295947.000 296127.709  0.06%   899 2259s
   130    24 296107.843   17 1467 295947.000 296124.767  0.06%   904 2274s
   152    28 296106.743   18 1474 295947.000 296123.780  0.06%   954 2290s
   176    38 296105.818   19 1401 295947.000 296122.560  0.06%   983 2303s
   205    50 296105.280   20  906 295947.000 296122.229  0.06%   912 2309s
   218    50 296121.904   20 2066 295947.000 296122.229  0.06%   863 2310s
   243    53 296103.350   21 1077 295947.000 296122.229  0.06%   799 2325s
   281    51 296099.835   22  982 295947.000 296122.229  0.06%   775 2341s
   325    61     cutoff   22      295947.000 296122.229  0.06%   731 2352s
   378    61 296056.667   21  951 295947.000 296122.229  0.06%   675 2369s
   420    61 296055.682   22  901 295947.000 296122.229  0.06%   679 2381s
   466    74 296034.529   23  928 295947.000 296122.229  0.06%   659 2394s
   513    83 296033.283   24 1054 295947.000 296122.229  0.06%   625 2403s
   564    90 296033.035   25 1102 295947.000 296122.229  0.06%   589 2409s
   621    95 296031.977   26  949 295947.000 296119.060  0.06%   551 2423s
   676    90 296028.765   27  871 295947.000 296119.060  0.06%   529 2436s
   728    98     cutoff   26      295947.000 296119.060  0.06%   512 2463s
   792    95     cutoff   30      295947.000 296119.060  0.06%   484 2478s
   863    95 296060.506   40  857 295947.000 296119.060  0.06%   468 2491s
   942    81 296059.921   41  147 295947.000 296119.060  0.06%   448 2503s
  1016    89 296059.550   42  139 295947.000 296119.060  0.06%   434 2515s
  1090    78 296058.119   44  380 295947.000 296119.060  0.06%   424 2523s
  1171    66     cutoff   44      295947.000 296119.060  0.06%   412 2534s
  1232    71 296109.808   46  969 295947.000 296110.434  0.06%   401 2544s
  1303    96 296108.861   48  952 295947.000 296109.657  0.05%   394 2557s
  1399   105 296108.452   51 1057 295947.000 296109.657  0.05%   387 2567s
  1493   107 295998.009   53  269 295947.000 296109.657  0.05%   382 2579s
  1600    73 295992.640   54  439 295947.000 296109.657  0.05%   370 2597s
  1704    45 296050.595   61  218 295947.000 296102.839  0.05%   364 2612s
  1798    34     cutoff   64      295947.000 296058.353  0.04%   361 2621s
  1863    22 296001.365   24 3328 295947.000 296046.036  0.03%   363 2634s
  1911    11     cutoff   25      295947.000 296023.361  0.03%   360 2640s
  1943     6 295996.226   56  722 295947.000 295999.214  0.02%   364 2646s
  1969     8 295993.777   57  896 295947.000 295996.050  0.02%   365 2651s
  1982    10     cutoff   60      295947.000 295993.124  0.02%   367 2656s
  1997     3     cutoff   63      295947.000 295991.618  0.02%   369 2662s
  2016     1 295986.105   66  153 295947.000 295989.418  0.01%   368 2666s

Cutting planes:
  Cover: 7393
  Clique: 2393
  MIR: 509
  StrongCG: 109
  Zero half: 2
  RLT: 6
  Relax-and-lift: 367

Explored 2026 nodes (2299009 simplex iterations) in 2667.88 seconds (2975.93 work units)
Thread count was 20 (of 20 available processors)

Solution count 10: 295947 295866 295849 ... 293862

Optimal solution found (tolerance 1.00e-04)
Best objective 2.959470000000e+05, best bound 2.959470000000e+05, gap 0.0000%
